p cnf 298 915
c Polynomial has 35 variables and 263 monomials
c Original variables from 1 to 35
c Monomials variables from 36 to 298
c p weight 1 0 0
c p weight -1 0 0
c p weight 2 0 0
c p weight -2 0 0
c p weight 3 0 0
c p weight -3 0 0
c p weight 4 0 0
c p weight -4 0 0
c p weight 5 0 0
c p weight -5 0 0
c p weight 6 0 0
c p weight -6 0 0
c p weight 7 0 0
c p weight -7 0 0
c p weight 8 0 0
c p weight -8 0 0
c p weight 9 0 0
c p weight -9 0 0
c p weight 10 0 0
c p weight -10 0 0
c p weight 11 0 0
c p weight -11 0 0
c p weight 12 0 0
c p weight -12 0 0
c p weight 13 0 0
c p weight -13 0 0
c p weight 14 0 0
c p weight -14 0 0
c p weight 15 0 0
c p weight -15 0 0
c p weight 16 0 0
c p weight -16 0 0
c p weight 17 0 0
c p weight -17 0 0
c p weight 18 0 0
c p weight -18 0 0
c p weight 19 0 0
c p weight -19 0 0
c p weight 20 0 0
c p weight -20 0 0
c p weight 21 0 0
c p weight -21 0 0
c p weight 22 0 0
c p weight -22 0 0
c p weight 23 0 0
c p weight -23 0 0
c p weight 24 0 0
c p weight -24 0 0
c p weight 25 0 0
c p weight -25 0 0
c p weight 26 0 0
c p weight -26 0 0
c p weight 27 0 0
c p weight -27 0 0
c p weight 28 0 0
c p weight -28 0 0
c p weight 29 0 0
c p weight -29 0 0
c p weight 30 0 0
c p weight -30 0 0
c p weight 31 0 0
c p weight -31 0 0
c p weight 32 0 0
c p weight -32 0 0
c p weight 33 0 0
c p weight -33 0 0
c p weight 34 0 0
c p weight -34 0 0
c p weight 35 0 0
c p weight -35 0 0
c p weight 36 64 0
c p weight -36 0 0
36 -1 -2 -3 -4 0
-36 1 0
-36 2 0
-36 3 0
-36 4 0
c p weight 37 64 0
c p weight -37 0 0
37 -2 -3 -4 -5 0
-37 2 0
-37 3 0
-37 4 0
-37 5 0
c p weight 38 64 0
c p weight -38 0 0
38 -3 -4 -5 -6 0
-38 3 0
-38 4 0
-38 5 0
-38 6 0
c p weight 39 64 0
c p weight -39 0 0
39 -4 -5 -6 -7 0
-39 4 0
-39 5 0
-39 6 0
-39 7 0
c p weight 40 64 0
c p weight -40 0 0
40 -5 -6 -7 -8 0
-40 5 0
-40 6 0
-40 7 0
-40 8 0
c p weight 41 64 0
c p weight -41 0 0
41 -6 -7 -8 -9 0
-41 6 0
-41 7 0
-41 8 0
-41 9 0
c p weight 42 64 0
c p weight -42 0 0
42 -7 -8 -9 -10 0
-42 7 0
-42 8 0
-42 9 0
-42 10 0
c p weight 43 64 0
c p weight -43 0 0
43 -8 -9 -10 -11 0
-43 8 0
-43 9 0
-43 10 0
-43 11 0
c p weight 44 64 0
c p weight -44 0 0
44 -9 -10 -11 -12 0
-44 9 0
-44 10 0
-44 11 0
-44 12 0
c p weight 45 64 0
c p weight -45 0 0
45 -10 -11 -12 -13 0
-45 10 0
-45 11 0
-45 12 0
-45 13 0
c p weight 46 64 0
c p weight -46 0 0
46 -11 -12 -13 -14 0
-46 11 0
-46 12 0
-46 13 0
-46 14 0
c p weight 47 64 0
c p weight -47 0 0
47 -12 -13 -14 -15 0
-47 12 0
-47 13 0
-47 14 0
-47 15 0
c p weight 48 64 0
c p weight -48 0 0
48 -13 -14 -15 -16 0
-48 13 0
-48 14 0
-48 15 0
-48 16 0
c p weight 49 64 0
c p weight -49 0 0
49 -14 -15 -16 -17 0
-49 14 0
-49 15 0
-49 16 0
-49 17 0
c p weight 50 64 0
c p weight -50 0 0
50 -15 -16 -17 -18 0
-50 15 0
-50 16 0
-50 17 0
-50 18 0
c p weight 51 64 0
c p weight -51 0 0
51 -16 -17 -18 -19 0
-51 16 0
-51 17 0
-51 18 0
-51 19 0
c p weight 52 64 0
c p weight -52 0 0
52 -17 -18 -19 -20 0
-52 17 0
-52 18 0
-52 19 0
-52 20 0
c p weight 53 64 0
c p weight -53 0 0
53 -18 -19 -20 -21 0
-53 18 0
-53 19 0
-53 20 0
-53 21 0
c p weight 54 64 0
c p weight -54 0 0
54 -19 -20 -21 -22 0
-54 19 0
-54 20 0
-54 21 0
-54 22 0
c p weight 55 64 0
c p weight -55 0 0
55 -20 -21 -22 -23 0
-55 20 0
-55 21 0
-55 22 0
-55 23 0
c p weight 56 64 0
c p weight -56 0 0
56 -21 -22 -23 -24 0
-56 21 0
-56 22 0
-56 23 0
-56 24 0
c p weight 57 64 0
c p weight -57 0 0
57 -22 -23 -24 -25 0
-57 22 0
-57 23 0
-57 24 0
-57 25 0
c p weight 58 64 0
c p weight -58 0 0
58 -23 -24 -25 -26 0
-58 23 0
-58 24 0
-58 25 0
-58 26 0
c p weight 59 64 0
c p weight -59 0 0
59 -24 -25 -26 -27 0
-59 24 0
-59 25 0
-59 26 0
-59 27 0
c p weight 60 64 0
c p weight -60 0 0
60 -25 -26 -27 -28 0
-60 25 0
-60 26 0
-60 27 0
-60 28 0
c p weight 61 64 0
c p weight -61 0 0
61 -26 -27 -28 -29 0
-61 26 0
-61 27 0
-61 28 0
-61 29 0
c p weight 62 64 0
c p weight -62 0 0
62 -27 -28 -29 -30 0
-62 27 0
-62 28 0
-62 29 0
-62 30 0
c p weight 63 64 0
c p weight -63 0 0
63 -28 -29 -30 -31 0
-63 28 0
-63 29 0
-63 30 0
-63 31 0
c p weight 64 64 0
c p weight -64 0 0
64 -29 -30 -31 -32 0
-64 29 0
-64 30 0
-64 31 0
-64 32 0
c p weight 65 64 0
c p weight -65 0 0
65 -30 -31 -32 -33 0
-65 30 0
-65 31 0
-65 32 0
-65 33 0
c p weight 66 64 0
c p weight -66 0 0
66 -31 -32 -33 -34 0
-66 31 0
-66 32 0
-66 33 0
-66 34 0
c p weight 67 64 0
c p weight -67 0 0
67 -32 -33 -34 -35 0
-67 32 0
-67 33 0
-67 34 0
-67 35 0
c p weight 68 -32 0
c p weight -68 0 0
68 -1 -2 -3 0
-68 1 0
-68 2 0
-68 3 0
c p weight 69 -32 0
c p weight -69 0 0
69 -1 -2 -4 0
-69 1 0
-69 2 0
-69 4 0
c p weight 70 -32 0
c p weight -70 0 0
70 -1 -3 -4 0
-70 1 0
-70 3 0
-70 4 0
c p weight 71 -64 0
c p weight -71 0 0
71 -2 -3 -4 0
-71 2 0
-71 3 0
-71 4 0
c p weight 72 -32 0
c p weight -72 0 0
72 -2 -3 -5 0
-72 2 0
-72 3 0
-72 5 0
c p weight 73 -32 0
c p weight -73 0 0
73 -2 -4 -5 0
-73 2 0
-73 4 0
-73 5 0
c p weight 74 -64 0
c p weight -74 0 0
74 -3 -4 -5 0
-74 3 0
-74 4 0
-74 5 0
c p weight 75 -32 0
c p weight -75 0 0
75 -3 -4 -6 0
-75 3 0
-75 4 0
-75 6 0
c p weight 76 -32 0
c p weight -76 0 0
76 -3 -5 -6 0
-76 3 0
-76 5 0
-76 6 0
c p weight 77 -64 0
c p weight -77 0 0
77 -4 -5 -6 0
-77 4 0
-77 5 0
-77 6 0
c p weight 78 -32 0
c p weight -78 0 0
78 -4 -5 -7 0
-78 4 0
-78 5 0
-78 7 0
c p weight 79 -32 0
c p weight -79 0 0
79 -4 -6 -7 0
-79 4 0
-79 6 0
-79 7 0
c p weight 80 -64 0
c p weight -80 0 0
80 -5 -6 -7 0
-80 5 0
-80 6 0
-80 7 0
c p weight 81 -32 0
c p weight -81 0 0
81 -5 -6 -8 0
-81 5 0
-81 6 0
-81 8 0
c p weight 82 -32 0
c p weight -82 0 0
82 -5 -7 -8 0
-82 5 0
-82 7 0
-82 8 0
c p weight 83 -64 0
c p weight -83 0 0
83 -6 -7 -8 0
-83 6 0
-83 7 0
-83 8 0
c p weight 84 -32 0
c p weight -84 0 0
84 -6 -7 -9 0
-84 6 0
-84 7 0
-84 9 0
c p weight 85 -32 0
c p weight -85 0 0
85 -6 -8 -9 0
-85 6 0
-85 8 0
-85 9 0
c p weight 86 -64 0
c p weight -86 0 0
86 -7 -8 -9 0
-86 7 0
-86 8 0
-86 9 0
c p weight 87 -32 0
c p weight -87 0 0
87 -7 -8 -10 0
-87 7 0
-87 8 0
-87 10 0
c p weight 88 -32 0
c p weight -88 0 0
88 -7 -9 -10 0
-88 7 0
-88 9 0
-88 10 0
c p weight 89 -64 0
c p weight -89 0 0
89 -8 -9 -10 0
-89 8 0
-89 9 0
-89 10 0
c p weight 90 -32 0
c p weight -90 0 0
90 -8 -9 -11 0
-90 8 0
-90 9 0
-90 11 0
c p weight 91 -32 0
c p weight -91 0 0
91 -8 -10 -11 0
-91 8 0
-91 10 0
-91 11 0
c p weight 92 -64 0
c p weight -92 0 0
92 -9 -10 -11 0
-92 9 0
-92 10 0
-92 11 0
c p weight 93 -32 0
c p weight -93 0 0
93 -9 -10 -12 0
-93 9 0
-93 10 0
-93 12 0
c p weight 94 -32 0
c p weight -94 0 0
94 -9 -11 -12 0
-94 9 0
-94 11 0
-94 12 0
c p weight 95 -64 0
c p weight -95 0 0
95 -10 -11 -12 0
-95 10 0
-95 11 0
-95 12 0
c p weight 96 -32 0
c p weight -96 0 0
96 -10 -11 -13 0
-96 10 0
-96 11 0
-96 13 0
c p weight 97 -32 0
c p weight -97 0 0
97 -10 -12 -13 0
-97 10 0
-97 12 0
-97 13 0
c p weight 98 -64 0
c p weight -98 0 0
98 -11 -12 -13 0
-98 11 0
-98 12 0
-98 13 0
c p weight 99 -32 0
c p weight -99 0 0
99 -11 -12 -14 0
-99 11 0
-99 12 0
-99 14 0
c p weight 100 -32 0
c p weight -100 0 0
100 -11 -13 -14 0
-100 11 0
-100 13 0
-100 14 0
c p weight 101 -64 0
c p weight -101 0 0
101 -12 -13 -14 0
-101 12 0
-101 13 0
-101 14 0
c p weight 102 -32 0
c p weight -102 0 0
102 -12 -13 -15 0
-102 12 0
-102 13 0
-102 15 0
c p weight 103 -32 0
c p weight -103 0 0
103 -12 -14 -15 0
-103 12 0
-103 14 0
-103 15 0
c p weight 104 -64 0
c p weight -104 0 0
104 -13 -14 -15 0
-104 13 0
-104 14 0
-104 15 0
c p weight 105 -32 0
c p weight -105 0 0
105 -13 -14 -16 0
-105 13 0
-105 14 0
-105 16 0
c p weight 106 -32 0
c p weight -106 0 0
106 -13 -15 -16 0
-106 13 0
-106 15 0
-106 16 0
c p weight 107 -64 0
c p weight -107 0 0
107 -14 -15 -16 0
-107 14 0
-107 15 0
-107 16 0
c p weight 108 -32 0
c p weight -108 0 0
108 -14 -15 -17 0
-108 14 0
-108 15 0
-108 17 0
c p weight 109 -32 0
c p weight -109 0 0
109 -14 -16 -17 0
-109 14 0
-109 16 0
-109 17 0
c p weight 110 -64 0
c p weight -110 0 0
110 -15 -16 -17 0
-110 15 0
-110 16 0
-110 17 0
c p weight 111 -32 0
c p weight -111 0 0
111 -15 -16 -18 0
-111 15 0
-111 16 0
-111 18 0
c p weight 112 -32 0
c p weight -112 0 0
112 -15 -17 -18 0
-112 15 0
-112 17 0
-112 18 0
c p weight 113 -64 0
c p weight -113 0 0
113 -16 -17 -18 0
-113 16 0
-113 17 0
-113 18 0
c p weight 114 -32 0
c p weight -114 0 0
114 -16 -17 -19 0
-114 16 0
-114 17 0
-114 19 0
c p weight 115 -32 0
c p weight -115 0 0
115 -16 -18 -19 0
-115 16 0
-115 18 0
-115 19 0
c p weight 116 -64 0
c p weight -116 0 0
116 -17 -18 -19 0
-116 17 0
-116 18 0
-116 19 0
c p weight 117 -32 0
c p weight -117 0 0
117 -17 -18 -20 0
-117 17 0
-117 18 0
-117 20 0
c p weight 118 -32 0
c p weight -118 0 0
118 -17 -19 -20 0
-118 17 0
-118 19 0
-118 20 0
c p weight 119 -64 0
c p weight -119 0 0
119 -18 -19 -20 0
-119 18 0
-119 19 0
-119 20 0
c p weight 120 -32 0
c p weight -120 0 0
120 -18 -19 -21 0
-120 18 0
-120 19 0
-120 21 0
c p weight 121 -32 0
c p weight -121 0 0
121 -18 -20 -21 0
-121 18 0
-121 20 0
-121 21 0
c p weight 122 -64 0
c p weight -122 0 0
122 -19 -20 -21 0
-122 19 0
-122 20 0
-122 21 0
c p weight 123 -32 0
c p weight -123 0 0
123 -19 -20 -22 0
-123 19 0
-123 20 0
-123 22 0
c p weight 124 -32 0
c p weight -124 0 0
124 -19 -21 -22 0
-124 19 0
-124 21 0
-124 22 0
c p weight 125 -64 0
c p weight -125 0 0
125 -20 -21 -22 0
-125 20 0
-125 21 0
-125 22 0
c p weight 126 -32 0
c p weight -126 0 0
126 -20 -21 -23 0
-126 20 0
-126 21 0
-126 23 0
c p weight 127 -32 0
c p weight -127 0 0
127 -20 -22 -23 0
-127 20 0
-127 22 0
-127 23 0
c p weight 128 -64 0
c p weight -128 0 0
128 -21 -22 -23 0
-128 21 0
-128 22 0
-128 23 0
c p weight 129 -32 0
c p weight -129 0 0
129 -21 -22 -24 0
-129 21 0
-129 22 0
-129 24 0
c p weight 130 -32 0
c p weight -130 0 0
130 -21 -23 -24 0
-130 21 0
-130 23 0
-130 24 0
c p weight 131 -64 0
c p weight -131 0 0
131 -22 -23 -24 0
-131 22 0
-131 23 0
-131 24 0
c p weight 132 -32 0
c p weight -132 0 0
132 -22 -23 -25 0
-132 22 0
-132 23 0
-132 25 0
c p weight 133 -32 0
c p weight -133 0 0
133 -22 -24 -25 0
-133 22 0
-133 24 0
-133 25 0
c p weight 134 -64 0
c p weight -134 0 0
134 -23 -24 -25 0
-134 23 0
-134 24 0
-134 25 0
c p weight 135 -32 0
c p weight -135 0 0
135 -23 -24 -26 0
-135 23 0
-135 24 0
-135 26 0
c p weight 136 -32 0
c p weight -136 0 0
136 -23 -25 -26 0
-136 23 0
-136 25 0
-136 26 0
c p weight 137 -64 0
c p weight -137 0 0
137 -24 -25 -26 0
-137 24 0
-137 25 0
-137 26 0
c p weight 138 -32 0
c p weight -138 0 0
138 -24 -25 -27 0
-138 24 0
-138 25 0
-138 27 0
c p weight 139 -32 0
c p weight -139 0 0
139 -24 -26 -27 0
-139 24 0
-139 26 0
-139 27 0
c p weight 140 -64 0
c p weight -140 0 0
140 -25 -26 -27 0
-140 25 0
-140 26 0
-140 27 0
c p weight 141 -32 0
c p weight -141 0 0
141 -25 -26 -28 0
-141 25 0
-141 26 0
-141 28 0
c p weight 142 -32 0
c p weight -142 0 0
142 -25 -27 -28 0
-142 25 0
-142 27 0
-142 28 0
c p weight 143 -64 0
c p weight -143 0 0
143 -26 -27 -28 0
-143 26 0
-143 27 0
-143 28 0
c p weight 144 -32 0
c p weight -144 0 0
144 -26 -27 -29 0
-144 26 0
-144 27 0
-144 29 0
c p weight 145 -32 0
c p weight -145 0 0
145 -26 -28 -29 0
-145 26 0
-145 28 0
-145 29 0
c p weight 146 -64 0
c p weight -146 0 0
146 -27 -28 -29 0
-146 27 0
-146 28 0
-146 29 0
c p weight 147 -32 0
c p weight -147 0 0
147 -27 -28 -30 0
-147 27 0
-147 28 0
-147 30 0
c p weight 148 -32 0
c p weight -148 0 0
148 -27 -29 -30 0
-148 27 0
-148 29 0
-148 30 0
c p weight 149 -64 0
c p weight -149 0 0
149 -28 -29 -30 0
-149 28 0
-149 29 0
-149 30 0
c p weight 150 -32 0
c p weight -150 0 0
150 -28 -29 -31 0
-150 28 0
-150 29 0
-150 31 0
c p weight 151 -32 0
c p weight -151 0 0
151 -28 -30 -31 0
-151 28 0
-151 30 0
-151 31 0
c p weight 152 -64 0
c p weight -152 0 0
152 -29 -30 -31 0
-152 29 0
-152 30 0
-152 31 0
c p weight 153 -32 0
c p weight -153 0 0
153 -29 -30 -32 0
-153 29 0
-153 30 0
-153 32 0
c p weight 154 -32 0
c p weight -154 0 0
154 -29 -31 -32 0
-154 29 0
-154 31 0
-154 32 0
c p weight 155 -64 0
c p weight -155 0 0
155 -30 -31 -32 0
-155 30 0
-155 31 0
-155 32 0
c p weight 156 -32 0
c p weight -156 0 0
156 -30 -31 -33 0
-156 30 0
-156 31 0
-156 33 0
c p weight 157 -32 0
c p weight -157 0 0
157 -30 -32 -33 0
-157 30 0
-157 32 0
-157 33 0
c p weight 158 -64 0
c p weight -158 0 0
158 -31 -32 -33 0
-158 31 0
-158 32 0
-158 33 0
c p weight 159 -32 0
c p weight -159 0 0
159 -31 -32 -34 0
-159 31 0
-159 32 0
-159 34 0
c p weight 160 -32 0
c p weight -160 0 0
160 -31 -33 -34 0
-160 31 0
-160 33 0
-160 34 0
c p weight 161 -64 0
c p weight -161 0 0
161 -32 -33 -34 0
-161 32 0
-161 33 0
-161 34 0
c p weight 162 -32 0
c p weight -162 0 0
162 -32 -33 -35 0
-162 32 0
-162 33 0
-162 35 0
c p weight 163 -32 0
c p weight -163 0 0
163 -32 -34 -35 0
-163 32 0
-163 34 0
-163 35 0
c p weight 164 -32 0
c p weight -164 0 0
164 -33 -34 -35 0
-164 33 0
-164 34 0
-164 35 0
c p weight 165 16 0
c p weight -165 0 0
165 -1 -2 0
-165 1 0
-165 2 0
c p weight 166 24 0
c p weight -166 0 0
166 -1 -3 0
-166 1 0
-166 3 0
c p weight 167 16 0
c p weight -167 0 0
167 -1 -4 0
-167 1 0
-167 4 0
c p weight 168 32 0
c p weight -168 0 0
168 -2 -3 0
-168 2 0
-168 3 0
c p weight 169 48 0
c p weight -169 0 0
169 -2 -4 0
-169 2 0
-169 4 0
c p weight 170 16 0
c p weight -170 0 0
170 -2 -5 0
-170 2 0
-170 5 0
c p weight 171 48 0
c p weight -171 0 0
171 -3 -4 0
-171 3 0
-171 4 0
c p weight 172 48 0
c p weight -172 0 0
172 -3 -5 0
-172 3 0
-172 5 0
c p weight 173 16 0
c p weight -173 0 0
173 -3 -6 0
-173 3 0
-173 6 0
c p weight 174 48 0
c p weight -174 0 0
174 -4 -5 0
-174 4 0
-174 5 0
c p weight 175 48 0
c p weight -175 0 0
175 -4 -6 0
-175 4 0
-175 6 0
c p weight 176 16 0
c p weight -176 0 0
176 -4 -7 0
-176 4 0
-176 7 0
c p weight 177 48 0
c p weight -177 0 0
177 -5 -6 0
-177 5 0
-177 6 0
c p weight 178 48 0
c p weight -178 0 0
178 -5 -7 0
-178 5 0
-178 7 0
c p weight 179 16 0
c p weight -179 0 0
179 -5 -8 0
-179 5 0
-179 8 0
c p weight 180 48 0
c p weight -180 0 0
180 -6 -7 0
-180 6 0
-180 7 0
c p weight 181 48 0
c p weight -181 0 0
181 -6 -8 0
-181 6 0
-181 8 0
c p weight 182 16 0
c p weight -182 0 0
182 -6 -9 0
-182 6 0
-182 9 0
c p weight 183 48 0
c p weight -183 0 0
183 -7 -8 0
-183 7 0
-183 8 0
c p weight 184 48 0
c p weight -184 0 0
184 -7 -9 0
-184 7 0
-184 9 0
c p weight 185 16 0
c p weight -185 0 0
185 -7 -10 0
-185 7 0
-185 10 0
c p weight 186 48 0
c p weight -186 0 0
186 -8 -9 0
-186 8 0
-186 9 0
c p weight 187 48 0
c p weight -187 0 0
187 -8 -10 0
-187 8 0
-187 10 0
c p weight 188 16 0
c p weight -188 0 0
188 -8 -11 0
-188 8 0
-188 11 0
c p weight 189 48 0
c p weight -189 0 0
189 -9 -10 0
-189 9 0
-189 10 0
c p weight 190 48 0
c p weight -190 0 0
190 -9 -11 0
-190 9 0
-190 11 0
c p weight 191 16 0
c p weight -191 0 0
191 -9 -12 0
-191 9 0
-191 12 0
c p weight 192 48 0
c p weight -192 0 0
192 -10 -11 0
-192 10 0
-192 11 0
c p weight 193 48 0
c p weight -193 0 0
193 -10 -12 0
-193 10 0
-193 12 0
c p weight 194 16 0
c p weight -194 0 0
194 -10 -13 0
-194 10 0
-194 13 0
c p weight 195 48 0
c p weight -195 0 0
195 -11 -12 0
-195 11 0
-195 12 0
c p weight 196 48 0
c p weight -196 0 0
196 -11 -13 0
-196 11 0
-196 13 0
c p weight 197 16 0
c p weight -197 0 0
197 -11 -14 0
-197 11 0
-197 14 0
c p weight 198 48 0
c p weight -198 0 0
198 -12 -13 0
-198 12 0
-198 13 0
c p weight 199 48 0
c p weight -199 0 0
199 -12 -14 0
-199 12 0
-199 14 0
c p weight 200 16 0
c p weight -200 0 0
200 -12 -15 0
-200 12 0
-200 15 0
c p weight 201 48 0
c p weight -201 0 0
201 -13 -14 0
-201 13 0
-201 14 0
c p weight 202 48 0
c p weight -202 0 0
202 -13 -15 0
-202 13 0
-202 15 0
c p weight 203 16 0
c p weight -203 0 0
203 -13 -16 0
-203 13 0
-203 16 0
c p weight 204 48 0
c p weight -204 0 0
204 -14 -15 0
-204 14 0
-204 15 0
c p weight 205 48 0
c p weight -205 0 0
205 -14 -16 0
-205 14 0
-205 16 0
c p weight 206 16 0
c p weight -206 0 0
206 -14 -17 0
-206 14 0
-206 17 0
c p weight 207 48 0
c p weight -207 0 0
207 -15 -16 0
-207 15 0
-207 16 0
c p weight 208 48 0
c p weight -208 0 0
208 -15 -17 0
-208 15 0
-208 17 0
c p weight 209 16 0
c p weight -209 0 0
209 -15 -18 0
-209 15 0
-209 18 0
c p weight 210 48 0
c p weight -210 0 0
210 -16 -17 0
-210 16 0
-210 17 0
c p weight 211 48 0
c p weight -211 0 0
211 -16 -18 0
-211 16 0
-211 18 0
c p weight 212 16 0
c p weight -212 0 0
212 -16 -19 0
-212 16 0
-212 19 0
c p weight 213 48 0
c p weight -213 0 0
213 -17 -18 0
-213 17 0
-213 18 0
c p weight 214 48 0
c p weight -214 0 0
214 -17 -19 0
-214 17 0
-214 19 0
c p weight 215 16 0
c p weight -215 0 0
215 -17 -20 0
-215 17 0
-215 20 0
c p weight 216 48 0
c p weight -216 0 0
216 -18 -19 0
-216 18 0
-216 19 0
c p weight 217 48 0
c p weight -217 0 0
217 -18 -20 0
-217 18 0
-217 20 0
c p weight 218 16 0
c p weight -218 0 0
218 -18 -21 0
-218 18 0
-218 21 0
c p weight 219 48 0
c p weight -219 0 0
219 -19 -20 0
-219 19 0
-219 20 0
c p weight 220 48 0
c p weight -220 0 0
220 -19 -21 0
-220 19 0
-220 21 0
c p weight 221 16 0
c p weight -221 0 0
221 -19 -22 0
-221 19 0
-221 22 0
c p weight 222 48 0
c p weight -222 0 0
222 -20 -21 0
-222 20 0
-222 21 0
c p weight 223 48 0
c p weight -223 0 0
223 -20 -22 0
-223 20 0
-223 22 0
c p weight 224 16 0
c p weight -224 0 0
224 -20 -23 0
-224 20 0
-224 23 0
c p weight 225 48 0
c p weight -225 0 0
225 -21 -22 0
-225 21 0
-225 22 0
c p weight 226 48 0
c p weight -226 0 0
226 -21 -23 0
-226 21 0
-226 23 0
c p weight 227 16 0
c p weight -227 0 0
227 -21 -24 0
-227 21 0
-227 24 0
c p weight 228 48 0
c p weight -228 0 0
228 -22 -23 0
-228 22 0
-228 23 0
c p weight 229 48 0
c p weight -229 0 0
229 -22 -24 0
-229 22 0
-229 24 0
c p weight 230 16 0
c p weight -230 0 0
230 -22 -25 0
-230 22 0
-230 25 0
c p weight 231 48 0
c p weight -231 0 0
231 -23 -24 0
-231 23 0
-231 24 0
c p weight 232 48 0
c p weight -232 0 0
232 -23 -25 0
-232 23 0
-232 25 0
c p weight 233 16 0
c p weight -233 0 0
233 -23 -26 0
-233 23 0
-233 26 0
c p weight 234 48 0
c p weight -234 0 0
234 -24 -25 0
-234 24 0
-234 25 0
c p weight 235 48 0
c p weight -235 0 0
235 -24 -26 0
-235 24 0
-235 26 0
c p weight 236 16 0
c p weight -236 0 0
236 -24 -27 0
-236 24 0
-236 27 0
c p weight 237 48 0
c p weight -237 0 0
237 -25 -26 0
-237 25 0
-237 26 0
c p weight 238 48 0
c p weight -238 0 0
238 -25 -27 0
-238 25 0
-238 27 0
c p weight 239 16 0
c p weight -239 0 0
239 -25 -28 0
-239 25 0
-239 28 0
c p weight 240 48 0
c p weight -240 0 0
240 -26 -27 0
-240 26 0
-240 27 0
c p weight 241 48 0
c p weight -241 0 0
241 -26 -28 0
-241 26 0
-241 28 0
c p weight 242 16 0
c p weight -242 0 0
242 -26 -29 0
-242 26 0
-242 29 0
c p weight 243 48 0
c p weight -243 0 0
243 -27 -28 0
-243 27 0
-243 28 0
c p weight 244 48 0
c p weight -244 0 0
244 -27 -29 0
-244 27 0
-244 29 0
c p weight 245 16 0
c p weight -245 0 0
245 -27 -30 0
-245 27 0
-245 30 0
c p weight 246 48 0
c p weight -246 0 0
246 -28 -29 0
-246 28 0
-246 29 0
c p weight 247 48 0
c p weight -247 0 0
247 -28 -30 0
-247 28 0
-247 30 0
c p weight 248 16 0
c p weight -248 0 0
248 -28 -31 0
-248 28 0
-248 31 0
c p weight 249 48 0
c p weight -249 0 0
249 -29 -30 0
-249 29 0
-249 30 0
c p weight 250 48 0
c p weight -250 0 0
250 -29 -31 0
-250 29 0
-250 31 0
c p weight 251 16 0
c p weight -251 0 0
251 -29 -32 0
-251 29 0
-251 32 0
c p weight 252 48 0
c p weight -252 0 0
252 -30 -31 0
-252 30 0
-252 31 0
c p weight 253 48 0
c p weight -253 0 0
253 -30 -32 0
-253 30 0
-253 32 0
c p weight 254 16 0
c p weight -254 0 0
254 -30 -33 0
-254 30 0
-254 33 0
c p weight 255 48 0
c p weight -255 0 0
255 -31 -32 0
-255 31 0
-255 32 0
c p weight 256 48 0
c p weight -256 0 0
256 -31 -33 0
-256 31 0
-256 33 0
c p weight 257 16 0
c p weight -257 0 0
257 -31 -34 0
-257 31 0
-257 34 0
c p weight 258 48 0
c p weight -258 0 0
258 -32 -33 0
-258 32 0
-258 33 0
c p weight 259 48 0
c p weight -259 0 0
259 -32 -34 0
-259 32 0
-259 34 0
c p weight 260 16 0
c p weight -260 0 0
260 -32 -35 0
-260 32 0
-260 35 0
c p weight 261 32 0
c p weight -261 0 0
261 -33 -34 0
-261 33 0
-261 34 0
c p weight 262 24 0
c p weight -262 0 0
262 -33 -35 0
-262 33 0
-262 35 0
c p weight 263 16 0
c p weight -263 0 0
263 -34 -35 0
-263 34 0
-263 35 0
c p weight 264 -12 0
c p weight -264 0 0
264 -1 0
-264 1 0
c p weight 265 -24 0
c p weight -265 0 0
265 -2 0
-265 2 0
c p weight 266 -36 0
c p weight -266 0 0
266 -3 0
-266 3 0
c p weight 267 -48 0
c p weight -267 0 0
267 -4 0
-267 4 0
c p weight 268 -48 0
c p weight -268 0 0
268 -5 0
-268 5 0
c p weight 269 -48 0
c p weight -269 0 0
269 -6 0
-269 6 0
c p weight 270 -48 0
c p weight -270 0 0
270 -7 0
-270 7 0
c p weight 271 -48 0
c p weight -271 0 0
271 -8 0
-271 8 0
c p weight 272 -48 0
c p weight -272 0 0
272 -9 0
-272 9 0
c p weight 273 -48 0
c p weight -273 0 0
273 -10 0
-273 10 0
c p weight 274 -48 0
c p weight -274 0 0
274 -11 0
-274 11 0
c p weight 275 -48 0
c p weight -275 0 0
275 -12 0
-275 12 0
c p weight 276 -48 0
c p weight -276 0 0
276 -13 0
-276 13 0
c p weight 277 -48 0
c p weight -277 0 0
277 -14 0
-277 14 0
c p weight 278 -48 0
c p weight -278 0 0
278 -15 0
-278 15 0
c p weight 279 -48 0
c p weight -279 0 0
279 -16 0
-279 16 0
c p weight 280 -48 0
c p weight -280 0 0
280 -17 0
-280 17 0
c p weight 281 -48 0
c p weight -281 0 0
281 -18 0
-281 18 0
c p weight 282 -48 0
c p weight -282 0 0
282 -19 0
-282 19 0
c p weight 283 -48 0
c p weight -283 0 0
283 -20 0
-283 20 0
c p weight 284 -48 0
c p weight -284 0 0
284 -21 0
-284 21 0
c p weight 285 -48 0
c p weight -285 0 0
285 -22 0
-285 22 0
c p weight 286 -48 0
c p weight -286 0 0
286 -23 0
-286 23 0
c p weight 287 -48 0
c p weight -287 0 0
287 -24 0
-287 24 0
c p weight 288 -48 0
c p weight -288 0 0
288 -25 0
-288 25 0
c p weight 289 -48 0
c p weight -289 0 0
289 -26 0
-289 26 0
c p weight 290 -48 0
c p weight -290 0 0
290 -27 0
-290 27 0
c p weight 291 -48 0
c p weight -291 0 0
291 -28 0
-291 28 0
c p weight 292 -48 0
c p weight -292 0 0
292 -29 0
-292 29 0
c p weight 293 -48 0
c p weight -293 0 0
293 -30 0
-293 30 0
c p weight 294 -48 0
c p weight -294 0 0
294 -31 0
-294 31 0
c p weight 295 -48 0
c p weight -295 0 0
295 -32 0
-295 32 0
c p weight 296 -36 0
c p weight -296 0 0
296 -33 0
-296 33 0
c p weight 297 -24 0
c p weight -297 0 0
297 -34 0
-297 34 0
c p weight 298 -12 0
c p weight -298 0 0
298 -35 0
-298 35 0
